33D32945 STP File, STP Format Version 1.0

SECTION Comment
Name    "T01"
Creator "Jonas Hartmann"
Remark  "Um grafo para teste"
END

SECTION Graph
Nodes 10
Edges 12
E 1 10 2
E 2 4 9
E 3 10 3
E 4 8 5
E 5 8 6
E 5 3 5
E 5 10 1
E 5 7 5
E 5 9 20
E 6 9 3
E 7 9 5
E 7 1 2
END

SECTION Terminals
Terminals 5
T 9
T 5
T 3
T 8
T 6
END

EOF
